src/ARITHMETIC/MACC/FIXED_POINT_MACC/VERILOG/fixed_point_macc/model/design_smt2.smt2
; SMT-LIBv2 description generated by Yosys 0.9+2406 (git sha1 000fd08198, g++ 9.3.0 -fPIC -Os)
; yosys-smt2-module fixed_point_macc
(declare-sort |fixed_point_macc_s| 0)
(declare-fun |fixed_point_macc_is| (|fixed_point_macc_s|) Bool)
; yosys-smt2-register r_SUM_RESULT 8
; yosys-smt2-wire r_SUM_RESULT 8
(declare-fun |fixed_point_macc#0| (|fixed_point_macc_s|) (_ BitVec 8)) ; \r_SUM_RESULT
(define-fun |fixed_point_macc_n r_SUM_RESULT| ((state |fixed_point_macc_s|)) (_ BitVec 8) (|fixed_point_macc#0| state))
; yosys-smt2-register r_MUL_RESULT 8
; yosys-smt2-wire r_MUL_RESULT 8
(declare-fun |fixed_point_macc#1| (|fixed_point_macc_s|) (_ BitVec 8)) ; \r_MUL_RESULT
(define-fun |fixed_point_macc_n r_MUL_RESULT| ((state |fixed_point_macc_s|)) (_ BitVec 8) (|fixed_point_macc#1| state))
; yosys-smt2-output o_RESULT 8
; yosys-smt2-register o_RESULT 8
; yosys-smt2-wire o_RESULT 8
(declare-fun |fixed_point_macc#2| (|fixed_point_macc_s|) (_ BitVec 8)) ; \o_RESULT
(define-fun |fixed_point_macc_n o_RESULT| ((state |fixed_point_macc_s|)) (_ BitVec 8) (|fixed_point_macc#2| state))
; yosys-smt2-input i_RESET 1
; yosys-smt2-wire i_RESET 1
(declare-fun |fixed_point_macc#3| (|fixed_point_macc_s|) Bool) ; \i_RESET
(define-fun |fixed_point_macc_n i_RESET| ((state |fixed_point_macc_s|)) Bool (|fixed_point_macc#3| state))
; yosys-smt2-input i_CLK 1
; yosys-smt2-wire i_CLK 1
(declare-fun |fixed_point_macc#4| (|fixed_point_macc_s|) Bool) ; \i_CLK
(define-fun |fixed_point_macc_n i_CLK| ((state |fixed_point_macc_s|)) Bool (|fixed_point_macc#4| state))
; yosys-smt2-input i_CLEAR_ACC_REG 1
; yosys-smt2-wire i_CLEAR_ACC_REG 1
(declare-fun |fixed_point_macc#5| (|fixed_point_macc_s|) Bool) ; \i_CLEAR_ACC_REG
(define-fun |fixed_point_macc_n i_CLEAR_ACC_REG| ((state |fixed_point_macc_s|)) Bool (|fixed_point_macc#5| state))
; yosys-smt2-input i_B 4
; yosys-smt2-wire i_B 4
(declare-fun |fixed_point_macc#6| (|fixed_point_macc_s|) (_ BitVec 4)) ; \i_B
(define-fun |fixed_point_macc_n i_B| ((state |fixed_point_macc_s|)) (_ BitVec 4) (|fixed_point_macc#6| state))
; yosys-smt2-input i_A 4
; yosys-smt2-wire i_A 4
(declare-fun |fixed_point_macc#7| (|fixed_point_macc_s|) (_ BitVec 4)) ; \i_A
(define-fun |fixed_point_macc_n i_A| ((state |fixed_point_macc_s|)) (_ BitVec 4) (|fixed_point_macc#7| state))
; yosys-smt2-register fr_past_valid 1
; yosys-smt2-wire fr_past_valid 1
(declare-fun |fixed_point_macc#8| (|fixed_point_macc_s|) (_ BitVec 1)) ; \fr_past_valid
(define-fun |fixed_point_macc_n fr_past_valid| ((state |fixed_point_macc_s|)) Bool (= ((_ extract 0 0) (|fixed_point_macc#8| state)) #b1))
; yosys-smt2-register $past$./fixed_point_macc.v:52$6$0 4
(declare-fun |fixed_point_macc#9| (|fixed_point_macc_s|) (_ BitVec 4)) ; $past$./fixed_point_macc.v:52$6$0
(define-fun |fixed_point_macc_n $past$./fixed_point_macc.v:52$6$0| ((state |fixed_point_macc_s|)) (_ BitVec 4) (|fixed_point_macc#9| state))
; yosys-smt2-register $past$./fixed_point_macc.v:51$5$0 4
(declare-fun |fixed_point_macc#10| (|fixed_point_macc_s|) (_ BitVec 4)) ; $past$./fixed_point_macc.v:51$5$0
(define-fun |fixed_point_macc_n $past$./fixed_point_macc.v:51$5$0| ((state |fixed_point_macc_s|)) (_ BitVec 4) (|fixed_point_macc#10| state))
; yosys-smt2-register $past$./fixed_point_macc.v:50$4$0 1
(declare-fun |fixed_point_macc#11| (|fixed_point_macc_s|) (_ BitVec 1)) ; $past$./fixed_point_macc.v:50$4$0
(define-fun |fixed_point_macc_n $past$./fixed_point_macc.v:50$4$0| ((state |fixed_point_macc_s|)) Bool (= ((_ extract 0 0) (|fixed_point_macc#11| state)) #b1))
; yosys-smt2-register $formal$./fixed_point_macc.v:45$8_EN 1
(declare-fun |fixed_point_macc#12| (|fixed_point_macc_s|) (_ BitVec 1)) ; $formal$./fixed_point_macc.v:45$8_EN
(define-fun |fixed_point_macc_n $formal$./fixed_point_macc.v:45$8_EN| ((state |fixed_point_macc_s|)) Bool (= ((_ extract 0 0) (|fixed_point_macc#12| state)) #b1))
; yosys-smt2-register $formal$./fixed_point_macc.v:45$8_CHECK 1
(declare-fun |fixed_point_macc#13| (|fixed_point_macc_s|) (_ BitVec 1)) ; $formal$./fixed_point_macc.v:45$8_CHECK
(define-fun |fixed_point_macc_n $formal$./fixed_point_macc.v:45$8_CHECK| ((state |fixed_point_macc_s|)) Bool (= ((_ extract 0 0) (|fixed_point_macc#13| state)) #b1))
; yosys-smt2-register $eq$./fixed_point_macc.v:45$41_Y 1
(declare-fun |fixed_point_macc#14| (|fixed_point_macc_s|) (_ BitVec 1)) ; $eq$./fixed_point_macc.v:45$41_Y
(define-fun |fixed_point_macc_n $eq$./fixed_point_macc.v:45$41_Y| ((state |fixed_point_macc_s|)) Bool (= ((_ extract 0 0) (|fixed_point_macc#14| state)) #b1))
; yosys-smt2-register $and$./fixed_point_macc.v:0$35_Y 1
(declare-fun |fixed_point_macc#15| (|fixed_point_macc_s|) (_ BitVec 1)) ; $and$./fixed_point_macc.v:0$35_Y
(define-fun |fixed_point_macc_n $and$./fixed_point_macc.v:0$35_Y| ((state |fixed_point_macc_s|)) Bool (= ((_ extract 0 0) (|fixed_point_macc#15| state)) #b1))
(define-fun |fixed_point_macc#16| ((state |fixed_point_macc_s|)) Bool (= (|fixed_point_macc#9| state) (|fixed_point_macc#6| state))) ; $eq$./fixed_point_macc.v:52$47_Y
; yosys-smt2-anyseq fixed_point_macc#17 1 $auto$setundef.cc:501:execute$136
(declare-fun |fixed_point_macc#17| (|fixed_point_macc_s|) (_ BitVec 1)) ; $auto$rtlil.cc:2807:Anyseq$137
(define-fun |fixed_point_macc#18| ((state |fixed_point_macc_s|)) Bool (not (or  (= ((_ extract 0 0) (|fixed_point_macc#15| state)) #b1) false false false false false false false false false false false false false false false false false false false false false false false false false false false false false false false))) ; $logic_not$./fixed_point_macc.v:0$36_Y
(define-fun |fixed_point_macc#19| ((state |fixed_point_macc_s|)) Bool (and (or  (|fixed_point_macc#18| state) false) (or  (|fixed_point_macc#4| state) false false false false false false false false false false false false false false false false false false false false false false false false false false false false false false false))) ; $logic_and$./fixed_point_macc.v:43$38_Y
(define-fun |fixed_point_macc#20| ((state |fixed_point_macc_s|)) Bool (and (or  (|fixed_point_macc#19| state) false) (or  (= ((_ extract 0 0) (|fixed_point_macc#8| state)) #b1) false))) ; $logic_and$./fixed_point_macc.v:43$40_Y
(define-fun |fixed_point_macc#21| ((state |fixed_point_macc_s|)) (_ BitVec 1) (ite (|fixed_point_macc#20| state) (|fixed_point_macc#17| state) (ite (|fixed_point_macc#16| state) #b1 #b0))) ; $0$formal$./fixed_point_macc.v:51$11_CHECK[0:0]$32
(define-fun |fixed_point_macc#22| ((state |fixed_point_macc_s|)) (_ BitVec 1) (ite (|fixed_point_macc#20| state) #b0 #b1)) ; $0$formal$./fixed_point_macc.v:49$9_EN[0:0]$29
; yosys-smt2-assume 0 ./fixed_point_macc.v:51.25-52.24
(define-fun |fixed_point_macc_u 0| ((state |fixed_point_macc_s|)) Bool (or (= ((_ extract 0 0) (|fixed_point_macc#21| state)) #b1) (not (= ((_ extract 0 0) (|fixed_point_macc#22| state)) #b1)))) ; $assume$./fixed_point_macc.v:51$52
(define-fun |fixed_point_macc#23| ((state |fixed_point_macc_s|)) Bool (= (|fixed_point_macc#10| state) (|fixed_point_macc#7| state))) ; $eq$./fixed_point_macc.v:51$46_Y
; yosys-smt2-anyseq fixed_point_macc#24 1 $auto$setundef.cc:501:execute$134
(declare-fun |fixed_point_macc#24| (|fixed_point_macc_s|) (_ BitVec 1)) ; $auto$rtlil.cc:2807:Anyseq$135
(define-fun |fixed_point_macc#25| ((state |fixed_point_macc_s|)) (_ BitVec 1) (ite (|fixed_point_macc#20| state) (|fixed_point_macc#24| state) (ite (|fixed_point_macc#23| state) #b1 #b0))) ; $0$formal$./fixed_point_macc.v:50$10_CHECK[0:0]$30
; yosys-smt2-assume 1 ./fixed_point_macc.v:50.37-51.24
(define-fun |fixed_point_macc_u 1| ((state |fixed_point_macc_s|)) Bool (or (= ((_ extract 0 0) (|fixed_point_macc#25| state)) #b1) (not (= ((_ extract 0 0) (|fixed_point_macc#22| state)) #b1)))) ; $assume$./fixed_point_macc.v:50$51
(define-fun |fixed_point_macc#26| ((state |fixed_point_macc_s|)) Bool (= (|fixed_point_macc#11| state) (ite (|fixed_point_macc#5| state) #b1 #b0))) ; $eq$./fixed_point_macc.v:50$45_Y
; yosys-smt2-anyseq fixed_point_macc#27 1 $auto$setundef.cc:501:execute$132
(declare-fun |fixed_point_macc#27| (|fixed_point_macc_s|) (_ BitVec 1)) ; $auto$rtlil.cc:2807:Anyseq$133
(define-fun |fixed_point_macc#28| ((state |fixed_point_macc_s|)) (_ BitVec 1) (ite (|fixed_point_macc#20| state) (|fixed_point_macc#27| state) (ite (|fixed_point_macc#26| state) #b1 #b0))) ; $0$formal$./fixed_point_macc.v:49$9_CHECK[0:0]$28
; yosys-smt2-assume 2 ./fixed_point_macc.v:49.8-50.36
(define-fun |fixed_point_macc_u 2| ((state |fixed_point_macc_s|)) Bool (or (= ((_ extract 0 0) (|fixed_point_macc#28| state)) #b1) (not (= ((_ extract 0 0) (|fixed_point_macc#22| state)) #b1)))) ; $assume$./fixed_point_macc.v:49$50
(define-fun |fixed_point_macc#29| ((state |fixed_point_macc_s|)) Bool (distinct (|fixed_point_macc#15| state) (ite (|fixed_point_macc#4| state) #b1 #b0))) ; $0$formal$./fixed_point_macc.v:41$7_CHECK[0:0]$24
; yosys-smt2-assume 3 ./fixed_point_macc.v:41.22-42.26
(define-fun |fixed_point_macc_u 3| ((state |fixed_point_macc_s|)) Bool (or (|fixed_point_macc#29| state) (not true))) ; $assume$./fixed_point_macc.v:41$48
; yosys-smt2-assert 0 ./fixed_point_macc.v:45.27-46.45
(define-fun |fixed_point_macc_a 0| ((state |fixed_point_macc_s|)) Bool (or (= ((_ extract 0 0) (|fixed_point_macc#13| state)) #b1) (not (= ((_ extract 0 0) (|fixed_point_macc#12| state)) #b1)))) ; $assert$./fixed_point_macc.v:45$49
; yosys-smt2-anyseq fixed_point_macc#30 1 $auto$setundef.cc:501:execute$130
(declare-fun |fixed_point_macc#30| (|fixed_point_macc_s|) (_ BitVec 1)) ; $auto$rtlil.cc:2807:Anyseq$131
; yosys-smt2-anyseq fixed_point_macc#31 1 $auto$setundef.cc:501:execute$128
(declare-fun |fixed_point_macc#31| (|fixed_point_macc_s|) (_ BitVec 1)) ; $auto$rtlil.cc:2807:Anyseq$129
(define-fun |fixed_point_macc#32| ((state |fixed_point_macc_s|)) Bool (not (or  (= ((_ extract 0 0) (|fixed_point_macc#0| state)) #b1) (= ((_ extract 1 1) (|fixed_point_macc#0| state)) #b1) (= ((_ extract 2 2) (|fixed_point_macc#0| state)) #b1) (= ((_ extract 3 3) (|fixed_point_macc#0| state)) #b1) (= ((_ extract 4 4) (|fixed_point_macc#0| state)) #b1) (= ((_ extract 5 5) (|fixed_point_macc#0| state)) #b1) (= ((_ extract 6 6) (|fixed_point_macc#0| state)) #b1) (= ((_ extract 7 7) (|fixed_point_macc#0| state)) #b1)))) ; $auto$wreduce.cc:468:run$127 [0]
(define-fun |fixed_point_macc#33| ((state |fixed_point_macc_s|)) (_ BitVec 8) (bvor (|fixed_point_macc#1| state) (concat #b0000000 (ite (|fixed_point_macc#32| state) #b1 #b0)))) ; $or$./fixed_point_macc.v:46$43_Y
(define-fun |fixed_point_macc#34| ((state |fixed_point_macc_s|)) Bool (distinct (|fixed_point_macc#33| state) #b00000000)) ; $reduce_bool$./fixed_point_macc.v:0$44_Y
(define-fun |fixed_point_macc#35| ((state |fixed_point_macc_s|)) (_ BitVec 1) (ite (= ((_ extract 0 0) (|fixed_point_macc#14| state)) #b1) (ite (|fixed_point_macc#34| state) #b1 #b0) (|fixed_point_macc#31| state))) ; $procmux$71_Y
(define-fun |fixed_point_macc#36| ((state |fixed_point_macc_s|)) (_ BitVec 1) (ite (|fixed_point_macc#20| state) (|fixed_point_macc#35| state) (|fixed_point_macc#30| state))) ; $0$formal$./fixed_point_macc.v:45$8_CHECK[0:0]$26
(define-fun |fixed_point_macc#37| ((state |fixed_point_macc_s|)) (_ BitVec 1) (ite (= ((_ extract 0 0) (|fixed_point_macc#14| state)) #b1) #b1 #b0)) ; $procmux$66_Y
(define-fun |fixed_point_macc#38| ((state |fixed_point_macc_s|)) (_ BitVec 1) (ite (|fixed_point_macc#20| state) (|fixed_point_macc#37| state) #b0)) ; $0$formal$./fixed_point_macc.v:45$8_EN[0:0]$27
(define-fun |fixed_point_macc#39| ((state |fixed_point_macc_s|)) (_ BitVec 8) (ite (|fixed_point_macc#3| state) (|fixed_point_macc#2| state) (|fixed_point_macc#0| state))) ; $0\o_RESULT[7:0]
(define-fun |fixed_point_macc#40| ((state |fixed_point_macc_s|)) (_ BitVec 8) (bvmul (concat ((_ extract 3 3) (|fixed_point_macc#7| state)) (concat ((_ extract 3 3) (|fixed_point_macc#7| state)) (concat ((_ extract 3 3) (|fixed_point_macc#7| state)) (concat ((_ extract 3 3) (|fixed_point_macc#7| state)) (|fixed_point_macc#7| state))))) (concat ((_ extract 3 3) (|fixed_point_macc#6| state)) (concat ((_ extract 3 3) (|fixed_point_macc#6| state)) (concat ((_ extract 3 3) (|fixed_point_macc#6| state)) (concat ((_ extract 3 3) (|fixed_point_macc#6| state)) (|fixed_point_macc#6| state))))))) ; $mul$./fixed_point_macc.v:26$16_Y
(define-fun |fixed_point_macc#41| ((state |fixed_point_macc_s|)) (_ BitVec 8) (ite (|fixed_point_macc#3| state) #b00000000 (|fixed_point_macc#40| state))) ; $0\r_MUL_RESULT[7:0]
(define-fun |fixed_point_macc#42| ((state |fixed_point_macc_s|)) (_ BitVec 8) (bvadd (|fixed_point_macc#0| state) (|fixed_point_macc#1| state))) ; $add$./fixed_point_macc.v:25$15_Y
(define-fun |fixed_point_macc#43| ((state |fixed_point_macc_s|)) (_ BitVec 8) (ite (|fixed_point_macc#5| state) #b00000000 (|fixed_point_macc#42| state))) ; $procmux$94_Y
(define-fun |fixed_point_macc#44| ((state |fixed_point_macc_s|)) (_ BitVec 8) (ite (|fixed_point_macc#3| state) #b00000000 (|fixed_point_macc#43| state))) ; $0\r_SUM_RESULT[7:0]
(define-fun |fixed_point_macc_a| ((state |fixed_point_macc_s|)) Bool 
  (|fixed_point_macc_a 0| state)
)
(define-fun |fixed_point_macc_u| ((state |fixed_point_macc_s|)) Bool (and
  (|fixed_point_macc_u 0| state)
  (|fixed_point_macc_u 1| state)
  (|fixed_point_macc_u 2| state)
  (|fixed_point_macc_u 3| state)
))
(define-fun |fixed_point_macc_i| ((state |fixed_point_macc_s|)) Bool (and
  (= (|fixed_point_macc#0| state) #b00000000) ; r_SUM_RESULT
  (= (|fixed_point_macc#1| state) #b00000000) ; r_MUL_RESULT
  (= (= ((_ extract 0 0) (|fixed_point_macc#8| state)) #b1) false) ; fr_past_valid
  (= (= ((_ extract 0 0) (|fixed_point_macc#12| state)) #b1) false) ; $formal$./fixed_point_macc.v:45$8_EN
))
(define-fun |fixed_point_macc_h| ((state |fixed_point_macc_s|)) Bool true)
(define-fun |fixed_point_macc_t| ((state |fixed_point_macc_s|) (next_state |fixed_point_macc_s|)) Bool (and
  (= (ite (|fixed_point_macc#4| state) #b1 #b0) (|fixed_point_macc#15| next_state)) ; $procdff$106 $and$./fixed_point_macc.v:0$35_Y
  (= (ite (|fixed_point_macc#3| state) #b1 #b0) (|fixed_point_macc#14| next_state)) ; $procdff$108 $eq$./fixed_point_macc.v:45$41_Y
  (= (|fixed_point_macc#36| state) (|fixed_point_macc#13| next_state)) ; $procdff$114 $formal$./fixed_point_macc.v:45$8_CHECK
  (= (|fixed_point_macc#38| state) (|fixed_point_macc#12| next_state)) ; $procdff$115 $formal$./fixed_point_macc.v:45$8_EN
  (= (ite (|fixed_point_macc#5| state) #b1 #b0) (|fixed_point_macc#11| next_state)) ; $procdff$109 $past$./fixed_point_macc.v:50$4$0
  (= (|fixed_point_macc#7| state) (|fixed_point_macc#10| next_state)) ; $procdff$110 $past$./fixed_point_macc.v:51$5$0
  (= (|fixed_point_macc#6| state) (|fixed_point_macc#9| next_state)) ; $procdff$111 $past$./fixed_point_macc.v:52$6$0
  (= #b1 (|fixed_point_macc#8| next_state)) ; $procdff$105 \fr_past_valid
  (= (|fixed_point_macc#39| state) (|fixed_point_macc#2| next_state)) ; $procdff$122 \o_RESULT
  (= (|fixed_point_macc#41| state) (|fixed_point_macc#1| next_state)) ; $procdff$123 \r_MUL_RESULT
  (= (|fixed_point_macc#44| state) (|fixed_point_macc#0| next_state)) ; $procdff$124 \r_SUM_RESULT
)) ; end of module fixed_point_macc
; yosys-smt2-topmod fixed_point_macc
; end of yosys output
